set VV := 0 1 2 3 4 ;
set VS := 0 1 2 3 4 5 6 7 8 9 10 11 ;
param cv := 
0 14
1 19
2 17
3 14
4 13
;
param cs := 
0 26
1 26
2 27
3 30
4 30
5 30
6 26
7 28
8 23
9 23
10 27
11 23
;
param bv:	 0 1 2 3 4 := 
		0 0 0 0 0 11 
		1 0 0 0 12 20 
		2 0 0 0 0 11 
		3 0 0 0 0 0 
		4 0 0 0 0 0 
;
param bs:	 0 1 2 3 4 5 6 7 8 9 10 11 := 
		0 0 21 0 0 0 0 0 0 26 0 0 0 
		1 21 0 0 0 24 0 0 0 0 0 21 0 
		2 0 0 0 0 22 0 0 21 0 0 0 0 
		3 0 0 0 0 0 0 0 0 30 0 0 0 
		4 0 24 22 0 0 0 0 0 0 0 0 0 
		5 0 0 0 0 0 0 26 0 0 0 0 0 
		6 0 0 0 0 0 26 0 0 0 30 21 25 
		7 0 0 21 0 0 0 0 0 0 0 0 0 
		8 26 0 0 30 0 0 0 0 0 27 0 0 
		9 0 0 0 0 0 0 30 0 27 0 0 0 
		10 0 21 0 0 0 0 21 0 0 0 0 0 
		11 0 0 0 0 0 0 25 0 0 0 0 0 
;
